c FILE: random-n100-d40-h-n100-d40-1.col

p edge 100 1980
e 1 3
e 1 5
e 1 6
e 1 8
e 1 10
e 1 11
e 1 16
e 1 23
e 1 26
e 1 27
e 1 30
e 1 34
e 1 35
e 1 36
e 1 41
e 1 43
e 1 44
e 1 45
e 1 46
e 1 49
e 1 51
e 1 52
e 1 53
e 1 55
e 1 57
e 1 59
e 1 60
e 1 61
e 1 62
e 1 63
e 1 64
e 1 68
e 1 70
e 1 72
e 1 76
e 1 82
e 1 83
e 1 84
e 1 85
e 1 87
e 1 88
e 1 90
e 1 94
e 1 96
e 1 99
e 2 3
e 2 6
e 2 7
e 2 12
e 2 13
e 2 16
e 2 18
e 2 22
e 2 24
e 2 25
e 2 26
e 2 28
e 2 31
e 2 32
e 2 35
e 2 36
e 2 42
e 2 44
e 2 45
e 2 46
e 2 49
e 2 51
e 2 52
e 2 54
e 2 56
e 2 58
e 2 61
e 2 62
e 2 63
e 2 67
e 2 69
e 2 71
e 2 72
e 2 74
e 2 77
e 2 78
e 2 80
e 2 82
e 2 84
e 2 86
e 2 88
e 2 93
e 2 94
e 2 98
e 3 6
e 3 7
e 3 9
e 3 12
e 3 13
e 3 14
e 3 18
e 3 20
e 3 21
e 3 25
e 3 26
e 3 27
e 3 31
e 3 33
e 3 34
e 3 36
e 3 38
e 3 40
e 3 46
e 3 47
e 3 49
e 3 50
e 3 51
e 3 53
e 3 54
e 3 57
e 3 58
e 3 59
e 3 73
e 3 75
e 3 79
e 3 85
e 3 91
e 3 92
e 3 93
e 3 97
e 3 98
e 3 99
e 4 7
e 4 11
e 4 14
e 4 17
e 4 18
e 4 20
e 4 23
e 4 26
e 4 27
e 4 29
e 4 30
e 4 34
e 4 35
e 4 37
e 4 40
e 4 43
e 4 45
e 4 49
e 4 50
e 4 51
e 4 57
e 4 58
e 4 62
e 4 63
e 4 68
e 4 69
e 4 73
e 4 76
e 4 79
e 4 80
e 4 83
e 4 84
e 4 85
e 4 90
e 4 91
e 4 92
e 4 95
e 4 96
e 4 98
e 4 100
e 5 7
e 5 9
e 5 14
e 5 17
e 5 18
e 5 20
e 5 21
e 5 22
e 5 25
e 5 26
e 5 30
e 5 31
e 5 35
e 5 39
e 5 42
e 5 46
e 5 52
e 5 54
e 5 55
e 5 57
e 5 66
e 5 69
e 5 70
e 5 71
e 5 72
e 5 73
e 5 76
e 5 81
e 5 82
e 5 86
e 5 90
e 5 91
e 5 93
e 5 94
e 6 7
e 6 9
e 6 10
e 6 14
e 6 19
e 6 20
e 6 21
e 6 22
e 6 24
e 6 26
e 6 32
e 6 33
e 6 43
e 6 45
e 6 46
e 6 47
e 6 51
e 6 52
e 6 53
e 6 54
e 6 57
e 6 59
e 6 65
e 6 66
e 6 68
e 6 72
e 6 73
e 6 81
e 6 83
e 6 86
e 6 87
e 6 92
e 6 98
e 7 9
e 7 11
e 7 15
e 7 17
e 7 20
e 7 21
e 7 32
e 7 35
e 7 36
e 7 39
e 7 41
e 7 42
e 7 46
e 7 47
e 7 50
e 7 52
e 7 55
e 7 56
e 7 66
e 7 68
e 7 70
e 7 73
e 7 74
e 7 76
e 7 79
e 7 80
e 7 82
e 7 87
e 7 88
e 7 90
e 7 94
e 7 95
e 7 100
e 8 14
e 8 15
e 8 16
e 8 18
e 8 27
e 8 28
e 8 30
e 8 32
e 8 34
e 8 36
e 8 37
e 8 38
e 8 40
e 8 41
e 8 42
e 8 43
e 8 48
e 8 49
e 8 55
e 8 58
e 8 60
e 8 62
e 8 65
e 8 68
e 8 69
e 8 71
e 8 74
e 8 77
e 8 80
e 8 82
e 8 86
e 8 89
e 8 92
e 8 93
e 8 98
e 8 99
e 8 100
e 9 12
e 9 14
e 9 19
e 9 24
e 9 25
e 9 27
e 9 28
e 9 29
e 9 34
e 9 47
e 9 49
e 9 54
e 9 58
e 9 59
e 9 60
e 9 61
e 9 65
e 9 66
e 9 67
e 9 73
e 9 74
e 9 76
e 9 78
e 9 82
e 9 83
e 9 86
e 9 88
e 9 89
e 9 90
e 9 91
e 9 94
e 9 97
e 9 99
e 9 100
e 10 12
e 10 21
e 10 24
e 10 25
e 10 30
e 10 33
e 10 35
e 10 36
e 10 38
e 10 43
e 10 44
e 10 46
e 10 47
e 10 48
e 10 50
e 10 55
e 10 56
e 10 57
e 10 62
e 10 63
e 10 66
e 10 72
e 10 73
e 10 74
e 10 75
e 10 76
e 10 79
e 10 80
e 10 81
e 10 83
e 10 84
e 10 86
e 10 87
e 10 90
e 10 91
e 10 93
e 10 97
e 10 98
e 10 99
e 11 12
e 11 20
e 11 24
e 11 29
e 11 30
e 11 35
e 11 39
e 11 41
e 11 47
e 11 53
e 11 57
e 11 58
e 11 62
e 11 63
e 11 65
e 11 66
e 11 68
e 11 69
e 11 70
e 11 72
e 11 73
e 11 74
e 11 81
e 11 82
e 11 84
e 11 86
e 11 90
e 11 91
e 11 97
e 11 98
e 11 99
e 11 100
e 12 14
e 12 15
e 12 17
e 12 21
e 12 27
e 12 28
e 12 29
e 12 30
e 12 31
e 12 36
e 12 41
e 12 42
e 12 44
e 12 47
e 12 48
e 12 49
e 12 50
e 12 51
e 12 52
e 12 53
e 12 57
e 12 59
e 12 61
e 12 62
e 12 63
e 12 65
e 12 70
e 12 73
e 12 75
e 12 77
e 12 80
e 12 82
e 12 84
e 12 87
e 12 91
e 12 92
e 12 96
e 13 16
e 13 17
e 13 18
e 13 19
e 13 22
e 13 25
e 13 32
e 13 34
e 13 35
e 13 36
e 13 37
e 13 38
e 13 42
e 13 43
e 13 44
e 13 47
e 13 51
e 13 53
e 13 55
e 13 57
e 13 59
e 13 60
e 13 61
e 13 66
e 13 68
e 13 70
e 13 71
e 13 73
e 13 76
e 13 77
e 13 81
e 13 84
e 13 89
e 13 90
e 13 91
e 13 95
e 13 96
e 13 99
e 13 100
e 14 17
e 14 19
e 14 20
e 14 22
e 14 23
e 14 28
e 14 29
e 14 31
e 14 35
e 14 36
e 14 37
e 14 40
e 14 42
e 14 43
e 14 44
e 14 46
e 14 50
e 14 51
e 14 54
e 14 56
e 14 57
e 14 58
e 14 60
e 14 61
e 14 62
e 14 69
e 14 74
e 14 77
e 14 78
e 14 82
e 14 83
e 14 88
e 14 97
e 15 16
e 15 17
e 15 18
e 15 21
e 15 23
e 15 30
e 15 31
e 15 33
e 15 37
e 15 43
e 15 44
e 15 45
e 15 47
e 15 49
e 15 52
e 15 53
e 15 54
e 15 57
e 15 59
e 15 64
e 15 72
e 15 73
e 15 77
e 15 78
e 15 79
e 15 85
e 15 86
e 15 88
e 15 92
e 15 94
e 16 18
e 16 19
e 16 22
e 16 23
e 16 24
e 16 26
e 16 30
e 16 31
e 16 32
e 16 34
e 16 38
e 16 41
e 16 43
e 16 44
e 16 45
e 16 52
e 16 55
e 16 57
e 16 58
e 16 59
e 16 60
e 16 61
e 16 63
e 16 64
e 16 65
e 16 67
e 16 69
e 16 70
e 16 72
e 16 74
e 16 77
e 16 78
e 16 81
e 16 89
e 16 90
e 16 92
e 16 93
e 16 95
e 16 96
e 16 98
e 16 99
e 17 19
e 17 20
e 17 21
e 17 22
e 17 23
e 17 24
e 17 26
e 17 32
e 17 34
e 17 35
e 17 40
e 17 42
e 17 44
e 17 47
e 17 50
e 17 51
e 17 55
e 17 56
e 17 57
e 17 68
e 17 71
e 17 74
e 17 75
e 17 76
e 17 78
e 17 81
e 17 92
e 17 93
e 17 95
e 18 24
e 18 26
e 18 28
e 18 30
e 18 31
e 18 36
e 18 39
e 18 40
e 18 45
e 18 48
e 18 49
e 18 50
e 18 51
e 18 52
e 18 60
e 18 68
e 18 71
e 18 73
e 18 77
e 18 78
e 18 81
e 18 82
e 18 83
e 18 84
e 18 85
e 18 87
e 18 91
e 18 94
e 18 95
e 18 96
e 18 97
e 18 100
e 19 30
e 19 32
e 19 33
e 19 34
e 19 35
e 19 37
e 19 41
e 19 43
e 19 44
e 19 46
e 19 54
e 19 57
e 19 58
e 19 60
e 19 61
e 19 66
e 19 67
e 19 71
e 19 75
e 19 78
e 19 80
e 19 86
e 19 88
e 19 91
e 19 92
e 19 95
e 19 96
e 19 98
e 20 22
e 20 23
e 20 25
e 20 27
e 20 28
e 20 29
e 20 30
e 20 36
e 20 37
e 20 38
e 20 39
e 20 40
e 20 43
e 20 45
e 20 46
e 20 47
e 20 51
e 20 56
e 20 58
e 20 60
e 20 66
e 20 67
e 20 69
e 20 72
e 20 75
e 20 77
e 20 80
e 20 81
e 20 82
e 20 83
e 20 85
e 20 89
e 20 91
e 20 92
e 20 93
e 20 96
e 21 23
e 21 25
e 21 26
e 21 27
e 21 31
e 21 33
e 21 38
e 21 40
e 21 41
e 21 42
e 21 44
e 21 53
e 21 57
e 21 58
e 21 62
e 21 63
e 21 67
e 21 69
e 21 73
e 21 80
e 21 81
e 21 83
e 21 88
e 21 93
e 21 94
e 21 95
e 21 96
e 21 100
e 22 24
e 22 25
e 22 31
e 22 34
e 22 35
e 22 36
e 22 37
e 22 42
e 22 43
e 22 44
e 22 45
e 22 46
e 22 51
e 22 52
e 22 57
e 22 60
e 22 61
e 22 66
e 22 67
e 22 74
e 22 77
e 22 78
e 22 79
e 22 82
e 22 86
e 22 92
e 22 93
e 22 95
e 22 96
e 22 97
e 22 98
e 23 26
e 23 28
e 23 32
e 23 33
e 23 34
e 23 35
e 23 36
e 23 37
e 23 41
e 23 43
e 23 44
e 23 46
e 23 48
e 23 49
e 23 52
e 23 55
e 23 57
e 23 58
e 23 59
e 23 62
e 23 68
e 23 71
e 23 72
e 23 78
e 23 81
e 23 82
e 23 86
e 23 90
e 23 92
e 23 95
e 23 97
e 23 100
e 24 26
e 24 27
e 24 29
e 24 30
e 24 36
e 24 41
e 24 44
e 24 46
e 24 47
e 24 49
e 24 52
e 24 54
e 24 57
e 24 60
e 24 61
e 24 64
e 24 65
e 24 66
e 24 68
e 24 70
e 24 71
e 24 74
e 24 75
e 24 79
e 24 81
e 24 85
e 24 87
e 24 88
e 24 89
e 24 90
e 24 91
e 24 93
e 24 94
e 25 28
e 25 29
e 25 31
e 25 36
e 25 37
e 25 38
e 25 42
e 25 44
e 25 45
e 25 47
e 25 57
e 25 60
e 25 66
e 25 68
e 25 69
e 25 70
e 25 74
e 25 77
e 25 78
e 25 80
e 25 86
e 25 91
e 25 95
e 25 97
e 25 98
e 25 99
e 25 100
e 26 27
e 26 28
e 26 30
e 26 31
e 26 33
e 26 34
e 26 35
e 26 36
e 26 39
e 26 42
e 26 45
e 26 51
e 26 53
e 26 56
e 26 61
e 26 63
e 26 64
e 26 65
e 26 66
e 26 67
e 26 68
e 26 74
e 26 80
e 26 82
e 26 83
e 26 84
e 26 85
e 26 89
e 26 91
e 26 93
e 26 96
e 26 97
e 27 31
e 27 32
e 27 33
e 27 36
e 27 38
e 27 46
e 27 47
e 27 49
e 27 55
e 27 61
e 27 62
e 27 67
e 27 69
e 27 71
e 27 74
e 27 77
e 27 78
e 27 79
e 27 80
e 27 85
e 27 88
e 27 91
e 27 92
e 27 93
e 27 96
e 27 98
e 27 99
e 28 31
e 28 32
e 28 35
e 28 38
e 28 41
e 28 43
e 28 50
e 28 52
e 28 54
e 28 56
e 28 58
e 28 59
e 28 60
e 28 65
e 28 67
e 28 68
e 28 70
e 28 71
e 28 72
e 28 74
e 28 82
e 28 84
e 28 86
e 28 88
e 28 89
e 28 97
e 29 44
e 29 49
e 29 51
e 29 61
e 29 62
e 29 71
e 29 72
e 29 73
e 29 75
e 29 76
e 29 77
e 29 78
e 29 81
e 29 82
e 29 84
e 29 86
e 29 92
e 29 93
e 29 95
e 29 96
e 29 99
e 29 100
e 30 33
e 30 38
e 30 40
e 30 41
e 30 42
e 30 45
e 30 49
e 30 51
e 30 53
e 30 55
e 30 56
e 30 58
e 30 60
e 30 61
e 30 62
e 30 65
e 30 68
e 30 71
e 30 72
e 30 73
e 30 74
e 30 76
e 30 77
e 30 78
e 30 81
e 30 83
e 30 84
e 30 86
e 30 88
e 30 90
e 30 91
e 30 92
e 30 93
e 30 95
e 30 99
e 30 100
e 31 35
e 31 37
e 31 40
e 31 41
e 31 42
e 31 44
e 31 46
e 31 48
e 31 49
e 31 51
e 31 53
e 31 54
e 31 57
e 31 58
e 31 61
e 31 63
e 31 64
e 31 65
e 31 66
e 31 69
e 31 72
e 31 74
e 31 75
e 31 76
e 31 84
e 31 86
e 31 96
e 32 34
e 32 35
e 32 36
e 32 39
e 32 40
e 32 42
e 32 45
e 32 46
e 32 47
e 32 48
e 32 51
e 32 54
e 32 55
e 32 61
e 32 62
e 32 63
e 32 64
e 32 67
e 32 68
e 32 70
e 32 74
e 32 83
e 32 85
e 32 87
e 32 89
e 32 92
e 32 93
e 32 96
e 32 97
e 32 98
e 33 35
e 33 38
e 33 40
e 33 43
e 33 45
e 33 53
e 33 55
e 33 56
e 33 57
e 33 60
e 33 61
e 33 64
e 33 67
e 33 69
e 33 71
e 33 81
e 33 82
e 33 84
e 33 86
e 33 88
e 33 89
e 33 90
e 33 97
e 33 98
e 34 38
e 34 43
e 34 44
e 34 45
e 34 49
e 34 50
e 34 51
e 34 52
e 34 53
e 34 54
e 34 63
e 34 65
e 34 68
e 34 71
e 34 72
e 34 75
e 34 78
e 34 82
e 34 84
e 34 90
e 34 94
e 34 96
e 35 38
e 35 43
e 35 44
e 35 49
e 35 50
e 35 51
e 35 55
e 35 57
e 35 58
e 35 60
e 35 61
e 35 62
e 35 63
e 35 64
e 35 68
e 35 69
e 35 70
e 35 71
e 35 76
e 35 77
e 35 78
e 35 79
e 35 84
e 35 85
e 35 86
e 35 88
e 35 89
e 35 90
e 35 91
e 35 94
e 35 95
e 35 98
e 35 100
e 36 38
e 36 43
e 36 47
e 36 53
e 36 58
e 36 60
e 36 61
e 36 63
e 36 65
e 36 69
e 36 70
e 36 71
e 36 74
e 36 75
e 36 77
e 36 80
e 36 86
e 36 91
e 36 97
e 36 98
e 37 38
e 37 39
e 37 41
e 37 43
e 37 44
e 37 46
e 37 48
e 37 53
e 37 54
e 37 57
e 37 59
e 37 65
e 37 66
e 37 72
e 37 75
e 37 76
e 37 80
e 37 81
e 37 85
e 37 95
e 37 96
e 37 97
e 37 98
e 37 99
e 38 39
e 38 42
e 38 45
e 38 46
e 38 47
e 38 48
e 38 53
e 38 54
e 38 62
e 38 67
e 38 69
e 38 70
e 38 71
e 38 74
e 38 75
e 38 76
e 38 77
e 38 80
e 38 82
e 38 83
e 38 84
e 38 86
e 38 88
e 38 89
e 38 90
e 38 91
e 38 93
e 38 94
e 39 40
e 39 41
e 39 42
e 39 47
e 39 50
e 39 51
e 39 52
e 39 53
e 39 58
e 39 59
e 39 60
e 39 62
e 39 63
e 39 64
e 39 65
e 39 66
e 39 67
e 39 71
e 39 73
e 39 75
e 39 76
e 39 77
e 39 80
e 39 82
e 39 83
e 39 85
e 39 86
e 39 88
e 39 92
e 39 93
e 39 97
e 40 44
e 40 46
e 40 47
e 40 48
e 40 49
e 40 52
e 40 57
e 40 58
e 40 69
e 40 72
e 40 77
e 40 82
e 40 85
e 40 87
e 40 89
e 40 91
e 40 94
e 41 43
e 41 51
e 41 56
e 41 68
e 41 69
e 41 70
e 41 71
e 41 72
e 41 74
e 41 76
e 41 78
e 41 80
e 41 82
e 41 85
e 41 86
e 41 91
e 41 92
e 41 93
e 41 94
e 41 95
e 41 97
e 41 98
e 42 44
e 42 46
e 42 47
e 42 51
e 42 52
e 42 57
e 42 59
e 42 63
e 42 64
e 42 65
e 42 66
e 42 68
e 42 70
e 42 73
e 42 76
e 42 78
e 42 83
e 42 93
e 42 95
e 42 98
e 43 44
e 43 46
e 43 47
e 43 55
e 43 56
e 43 57
e 43 58
e 43 61
e 43 62
e 43 63
e 43 65
e 43 68
e 43 71
e 43 72
e 43 73
e 43 76
e 43 78
e 43 79
e 43 81
e 43 86
e 43 87
e 43 91
e 43 92
e 43 94
e 43 95
e 43 98
e 43 99
e 44 45
e 44 47
e 44 48
e 44 49
e 44 52
e 44 54
e 44 55
e 44 56
e 44 65
e 44 66
e 44 72
e 44 74
e 44 77
e 44 78
e 44 79
e 44 82
e 44 84
e 44 86
e 44 87
e 44 88
e 44 90
e 44 93
e 44 99
e 45 46
e 45 50
e 45 51
e 45 58
e 45 61
e 45 65
e 45 66
e 45 70
e 45 71
e 45 73
e 45 74
e 45 75
e 45 76
e 45 81
e 45 85
e 45 86
e 45 89
e 45 97
e 45 98
e 46 47
e 46 48
e 46 49
e 46 52
e 46 53
e 46 55
e 46 56
e 46 58
e 46 59
e 46 63
e 46 64
e 46 69
e 46 76
e 46 77
e 46 80
e 46 82
e 46 86
e 46 89
e 46 91
e 46 92
e 46 93
e 46 94
e 46 100
e 47 49
e 47 52
e 47 55
e 47 61
e 47 62
e 47 67
e 47 68
e 47 70
e 47 71
e 47 82
e 47 88
e 47 89
e 47 90
e 47 92
e 47 93
e 47 94
e 47 95
e 47 96
e 47 99
e 47 100
e 48 51
e 48 54
e 48 55
e 48 57
e 48 59
e 48 61
e 48 62
e 48 67
e 48 77
e 48 78
e 48 84
e 48 88
e 48 89
e 48 92
e 48 95
e 48 96
e 48 99
e 49 54
e 49 56
e 49 57
e 49 58
e 49 61
e 49 62
e 49 63
e 49 65
e 49 67
e 49 70
e 49 71
e 49 73
e 49 75
e 49 77
e 49 85
e 49 87
e 49 88
e 49 93
e 49 96
e 49 99
e 50 51
e 50 54
e 50 56
e 50 57
e 50 58
e 50 61
e 50 65
e 50 68
e 50 69
e 50 71
e 50 73
e 50 76
e 50 77
e 50 79
e 50 82
e 50 84
e 50 85
e 50 90
e 50 91
e 50 93
e 50 94
e 50 98
e 50 99
e 50 100
e 51 52
e 51 54
e 51 55
e 51 56
e 51 60
e 51 62
e 51 63
e 51 64
e 51 65
e 51 69
e 51 70
e 51 72
e 51 73
e 51 74
e 51 77
e 51 79
e 51 85
e 51 87
e 51 90
e 51 93
e 51 96
e 51 99
e 52 54
e 52 56
e 52 59
e 52 60
e 52 63
e 52 65
e 52 68
e 52 69
e 52 71
e 52 72
e 52 73
e 52 75
e 52 78
e 52 79
e 52 80
e 52 81
e 52 85
e 52 87
e 52 94
e 52 95
e 52 96
e 52 98
e 52 100
e 53 56
e 53 58
e 53 60
e 53 65
e 53 69
e 53 73
e 53 74
e 53 75
e 53 76
e 53 77
e 53 78
e 53 79
e 53 82
e 53 86
e 53 89
e 53 92
e 53 94
e 53 95
e 53 96
e 53 98
e 54 57
e 54 61
e 54 64
e 54 65
e 54 66
e 54 67
e 54 68
e 54 70
e 54 74
e 54 77
e 54 79
e 54 82
e 54 85
e 54 86
e 54 87
e 54 89
e 54 93
e 54 94
e 54 95
e 54 98
e 54 100
e 55 57
e 55 60
e 55 64
e 55 65
e 55 67
e 55 68
e 55 72
e 55 75
e 55 76
e 55 77
e 55 80
e 55 83
e 55 84
e 55 86
e 55 87
e 55 89
e 55 91
e 55 93
e 55 97
e 55 100
e 56 59
e 56 62
e 56 65
e 56 66
e 56 67
e 56 69
e 56 70
e 56 77
e 56 79
e 56 80
e 56 83
e 56 85
e 56 86
e 56 88
e 56 93
e 56 94
e 56 95
e 56 98
e 57 58
e 57 60
e 57 61
e 57 65
e 57 70
e 57 73
e 57 85
e 57 87
e 57 88
e 57 89
e 57 92
e 57 94
e 57 98
e 58 62
e 58 70
e 58 71
e 58 81
e 58 82
e 58 84
e 58 90
e 58 92
e 58 93
e 58 96
e 58 97
e 59 60
e 59 61
e 59 63
e 59 72
e 59 75
e 59 77
e 59 78
e 59 82
e 59 83
e 59 87
e 59 89
e 59 90
e 59 93
e 59 95
e 60 61
e 60 64
e 60 68
e 60 69
e 60 71
e 60 72
e 60 73
e 60 75
e 60 80
e 60 81
e 60 82
e 60 83
e 60 84
e 60 86
e 60 87
e 60 88
e 60 89
e 60 90
e 60 91
e 60 92
e 60 93
e 60 95
e 60 96
e 60 98
e 60 99
e 61 62
e 61 63
e 61 65
e 61 67
e 61 73
e 61 75
e 61 76
e 61 78
e 61 79
e 61 82
e 61 83
e 61 84
e 61 86
e 61 89
e 61 92
e 61 96
e 61 98
e 61 99
e 62 65
e 62 66
e 62 67
e 62 71
e 62 73
e 62 75
e 62 77
e 62 78
e 62 79
e 62 80
e 62 81
e 62 84
e 62 86
e 62 88
e 62 91
e 62 93
e 62 95
e 62 96
e 62 100
e 63 64
e 63 66
e 63 67
e 63 68
e 63 69
e 63 71
e 63 73
e 63 75
e 63 78
e 63 81
e 63 87
e 63 90
e 63 93
e 63 94
e 63 95
e 63 97
e 63 99
e 63 100
e 64 65
e 64 69
e 64 71
e 64 72
e 64 75
e 64 76
e 64 77
e 64 81
e 64 83
e 64 84
e 64 88
e 64 89
e 64 93
e 64 94
e 64 98
e 64 100
e 65 68
e 65 71
e 65 73
e 65 74
e 65 76
e 65 85
e 65 88
e 65 90
e 65 91
e 65 95
e 65 97
e 65 98
e 65 100
e 66 68
e 66 69
e 66 70
e 66 76
e 66 78
e 66 79
e 66 82
e 66 84
e 66 91
e 66 94
e 66 95
e 66 98
e 67 70
e 67 71
e 67 72
e 67 74
e 67 81
e 67 85
e 67 86
e 67 87
e 67 88
e 67 89
e 67 95
e 67 98
e 67 99
e 68 71
e 68 79
e 68 80
e 68 81
e 68 82
e 68 83
e 68 87
e 68 88
e 68 90
e 68 97
e 68 99
e 68 100
e 69 70
e 69 71
e 69 73
e 69 74
e 69 76
e 69 83
e 69 86
e 69 87
e 69 88
e 69 89
e 69 90
e 69 92
e 69 94
e 69 95
e 69 96
e 70 72
e 70 73
e 70 76
e 70 79
e 70 86
e 70 91
e 70 92
e 70 93
e 70 94
e 70 95
e 70 97
e 70 98
e 71 74
e 71 75
e 71 76
e 71 79
e 71 81
e 71 82
e 71 83
e 71 85
e 71 88
e 71 90
e 71 91
e 71 94
e 71 98
e 71 99
e 72 73
e 72 74
e 72 80
e 72 81
e 72 84
e 72 88
e 72 91
e 72 95
e 73 76
e 73 79
e 73 80
e 73 82
e 73 83
e 73 85
e 73 94
e 73 95
e 73 97
e 73 100
e 74 78
e 74 79
e 74 80
e 74 83
e 74 91
e 74 93
e 74 95
e 74 97
e 75 77
e 75 79
e 75 81
e 75 82
e 75 85
e 75 88
e 75 89
e 75 90
e 75 98
e 75 100
e 76 78
e 76 83
e 76 87
e 76 89
e 76 93
e 76 97
e 76 98
e 76 99
e 77 80
e 77 88
e 77 89
e 77 91
e 77 92
e 77 96
e 77 98
e 77 100
e 78 79
e 78 80
e 78 81
e 78 82
e 78 85
e 78 87
e 78 89
e 78 94
e 78 99
e 78 100
e 79 83
e 79 86
e 79 91
e 79 95
e 79 96
e 79 97
e 80 82
e 80 83
e 80 84
e 80 85
e 80 86
e 80 89
e 80 90
e 80 92
e 80 97
e 80 99
e 81 83
e 81 84
e 81 86
e 81 87
e 81 88
e 81 89
e 81 90
e 81 91
e 81 92
e 81 93
e 81 98
e 82 83
e 82 85
e 82 87
e 82 91
e 82 94
e 82 98
e 82 100
e 83 84
e 83 87
e 83 90
e 83 93
e 83 98
e 83 99
e 84 85
e 84 86
e 84 89
e 84 92
e 84 96
e 84 97
e 84 99
e 84 100
e 85 87
e 85 90
e 85 93
e 85 95
e 85 98
e 86 87
e 86 98
e 87 90
e 87 92
e 87 93
e 87 99
e 88 91
e 88 95
e 88 96
e 89 95
e 89 96
e 89 97
e 89 98
e 89 99
e 89 100
e 90 91
e 90 92
e 90 94
e 90 96
e 91 92
e 91 94
e 91 97
e 91 98
e 91 99
e 92 93
e 92 96
e 92 97
e 92 99
e 93 94
e 93 96
e 94 97
e 95 99
e 95 100
e 96 100
e 97 98
e 97 99
e 99 100